c 9th DIMACS Implementation Challenge: Shortest Paths
c http://www.dis.uniroma1.it/~challenge9
c TIGER/Line graph USA-road-d.FLA
c
p sp 16 16
c graph contains 16 nodes and 2712798 arcs
c
a 1 2 5
a 2 1 5
a 1 3 5
a 3 1 5
a 2 3 4
a 3 2 4
a 2 4 3
a 4 2 3
a 3 4 7
a 4 3 7
a 3 5 7
a 5 3 7
a 3 8 5
a 8 3 7
a 4 8 11
a 8 4 11
a 4 11 16
a 11 4 16
a 4 12 13
a 12 4 13
a 4 13 14
a 13 4 14
a 5 6 4
a 6 5 4
a 5 8 5
a 8 5 5
a 6 7 9
a 7 6 9
a 7 14 12
a 14 7 12
a 8 9 3
a 9 8 3
a 9 10 4
a 10 9 4
a 10 14 3
a 14 10 3
a 10 16 8
a 16 10 8
a 11 14 7
a 14 11 7
a 11 16 4
a 16 11 4
a 11 12 5
a 12 11 5
a 12 15 4
a 15 12 4
a 12 13 9
a 13 12 9
a 13 16 5
a 16 13 5
a 1 4 12
a 4 1 12
a 2 3 35
a 3 2 35
a 2 6 36
a 6 2 36
a 2 8 34
a 8 2 34
a 3 4 4
a 4 3 4
a 3 5 65
a 5 3 65
a 3 6 42
a 6 3 42
a 4 5 33
a 5 4 33
a 4 9 30
a 9 4 30
a 5 6 18
a 6 5 18
a 5 7 23
a 7 5 23
a 6 7 39
a 7 6 39
a 6 8 24
a 8 6 24
a 7 8 25
a 8 7 25
a 7 9 21
a 9 7 21
a 8 9 19
a 9 8 19
